resources/mosek.lp
\ Created by MOSEK version 8.0.0.94
minimize
system_cost:  + 2e-01 Gen_001d01h01 + 2e-01 Gen_001d01h02 + 2e-01 Gen_001d01h03 + 2e-01 Gen_001d01h04 + 2e-01 Gen_001d01h05 + 2e-01 Gen_001d01h06 + 2e-01 Gen_001d01h07 + 2e-01 Gen_001d01h08 + 2e-01 Gen_001d01h09 + 2e-01 Gen_001d01h10
 + 2e-01 Gen_001d01h11 + 2e-01 Gen_001d01h12 + 2e-01 Gen_001d01h13 + 2e-01 Gen_001d01h14 + 2e-01 Gen_001d01h15 + 2e-01 Gen_001d01h16 + 2e-01 Gen_001d01h17 + 2e-01 Gen_001d01h18 + 2e-01 Gen_001d01h19 + 2e-01 Gen_001d01h20
Subject To
 dummy_constraint: Gen_001d01h01 + Gen_001d01h02 <= 1000
Bounds
 0 <= Gen_001d01h01 <= 1.0
 0 <= Gen_001d01h02 <= +infinity
End
