rust/resources/mps/mosek.mps
NAME        mosek
ROWS
 N  system_cost
 L  dummy_constraint
COLUMNS
    Gen_001d01h01  system_cost  0.2
    Gen_001d01h01  dummy_constraint  1
    Gen_001d01h02  system_cost  0.2
    Gen_001d01h02  dummy_constraint  1
    Gen_001d01h03  system_cost  0.2
    Gen_001d01h04  system_cost  0.2
    Gen_001d01h05  system_cost  0.2
    Gen_001d01h06  system_cost  0.2
    Gen_001d01h07  system_cost  0.2
    Gen_001d01h08  system_cost  0.2
    Gen_001d01h09  system_cost  0.2
    Gen_001d01h10  system_cost  0.2
    Gen_001d01h11  system_cost  0.2
    SO_GB.XYZ's.Dan.(1)  dummy_constraint  59.983048643
    STU_7_AL.rsuT.Wat.Job.(1)  dummy_constraint  -0.2
RHS
    RHS_V     dummy_constraint  1000
BOUNDS
 UP BOUND     Gen_001d01h01  1
ENDATA
